09-routing/solutions/XSH-n20-k4-18.opt.sol
Route #1: 1 7 18
Route #2: 11 20 16 13 10
Route #3: 8 14 19 5 17 6 4 3
Route #4: 9 15 12 2
Cost 997
